
;this file is automatically generated: Sun Oct 25 10:43:47 CST 2020

;declarations generated

(declare-fun oclExcludes ( Int Int) Bool)
(declare-fun Cardinality ( Int) Int)
(declare-fun class13_Class13IntAttr2 ( Int) Int)
(declare-fun obj_083e00e9_d0cf_463a_9486_f41a8d3d4a73 ( Int) Int)
(declare-fun type_f5213ee2_dcba_4c31_ae0f_640e97be3a7d_Class19 ( Int) Bool)
(declare-fun type_f5213ee2_dcba_4c31_ae0f_640e97be3a7d_Class13 ( Int) Bool)
(declare-fun oclSelect ( Int Bool) Int)
(declare-fun Enum0 ( Int) Int)
(declare-fun Enum1 ( Int) Int)
(declare-fun container_ ( Int) Int)
(declare-fun oclIncludes ( Int Int) Bool)
(declare-fun ObjAt ( Int Int) Int)

;formula(s) generated
(assert (! (forall ((v Int)) (=> (and ( type_f5213ee2_dcba_4c31_ae0f_640e97be3a7d_Class13 v )  ( type_f5213ee2_dcba_4c31_ae0f_640e97be3a7d_Class19 v ) ) (< ( class13_Class13IntAttr2 ( obj_083e00e9_d0cf_463a_9486_f41a8d3d4a73 v )  )  19))):named l0))
(assert (exists ((o Int)) (and ( type_f5213ee2_dcba_4c31_ae0f_640e97be3a7d_Class13 ( obj_083e00e9_d0cf_463a_9486_f41a8d3d4a73 o )  )  ( type_f5213ee2_dcba_4c31_ae0f_640e97be3a7d_Class19 ( obj_083e00e9_d0cf_463a_9486_f41a8d3d4a73 o )  ) )))

 ;end of formula 